# Solution for model Scenatio_[1, 2, 3, 4, 5, 6, 7, 8, 9, 10, 11, 12, 13, 14, 15, 16, 17, 18, 19, 20]
# Objective value = 2.0420000000000002e+02
y[1] 1
y[2] 0
y[3] 0
y[4] 0
y[5] 1
y[6] 1
w[1] 30
w[2] 0
w[3] 0
w[4] 0
w[5] 10
w[6] 6
x[1,1,1] 1
x[1,1,2] 0.75
x[1,1,3] 1
x[1,1,4] 4.2857142857142860e-01
x[1,1,5] 7.7777777777777779e-01
x[1,1,6] 1
x[1,1,7] 1
x[1,1,8] 0.625
x[1,1,9] 1
x[1,1,10] 1
x[1,1,11] 1
x[1,1,12] 1
x[1,1,13] 1
x[1,1,14] 2.8571428571428581e-01
x[1,1,15] 1
x[1,1,16] 3.3333333333333337e-01
x[1,1,17] 1
x[1,1,18] 1
x[1,1,19] 1
x[1,1,20] 1
x[1,2,1] 0
x[1,2,2] 0
x[1,2,3] 0
x[1,2,4] 0
x[1,2,5] 0
x[1,2,6] 0
x[1,2,7] 0
x[1,2,8] 0
x[1,2,9] 0
x[1,2,10] 0
x[1,2,11] 0
x[1,2,12] 0
x[1,2,13] 0
x[1,2,14] 0
x[1,2,15] 0
x[1,2,16] 0
x[1,2,17] 0
x[1,2,18] 0
x[1,2,19] 0
x[1,2,20] 0
x[1,3,1] 0
x[1,3,2] 0
x[1,3,3] 0
x[1,3,4] 0
x[1,3,5] 0
x[1,3,6] 0
x[1,3,7] 0
x[1,3,8] 0
x[1,3,9] 0
x[1,3,10] 0
x[1,3,11] 0
x[1,3,12] 0
x[1,3,13] 0
x[1,3,14] 0
x[1,3,15] 0
x[1,3,16] 0
x[1,3,17] 0
x[1,3,18] 0
x[1,3,19] 0
x[1,3,20] 0
x[1,4,1] 0
x[1,4,2] 0
x[1,4,3] 0
x[1,4,4] 0
x[1,4,5] 0
x[1,4,6] 0
x[1,4,7] 0
x[1,4,8] 0
x[1,4,9] 0
x[1,4,10] 0
x[1,4,11] 0
x[1,4,12] 0
x[1,4,13] 0
x[1,4,14] 0
x[1,4,15] 0
x[1,4,16] 0
x[1,4,17] 0
x[1,4,18] 0
x[1,4,19] 0
x[1,4,20] 0
x[1,5,1] 0
x[1,5,2] 0.25
x[1,5,3] 0
x[1,5,4] 5.7142857142857140e-01
x[1,5,5] 2.2222222222222232e-01
x[1,5,6] 0
x[1,5,7] 0
x[1,5,8] 0.375
x[1,5,9] 0
x[1,5,10] 0
x[1,5,11] 0
x[1,5,12] 0
x[1,5,13] 0
x[1,5,14] 7.1428571428571430e-01
x[1,5,15] 0
x[1,5,16] 6.6666666666666663e-01
x[1,5,17] 0
x[1,5,18] 0
x[1,5,19] 0
x[1,5,20] 0
x[1,6,1] 0
x[1,6,2] 0
x[1,6,3] 0
x[1,6,4] 0
x[1,6,5] 0
x[1,6,6] 0
x[1,6,7] 0
x[1,6,8] 0
x[1,6,9] 0
x[1,6,10] 0
x[1,6,11] 0
x[1,6,12] 0
x[1,6,13] 0
x[1,6,14] 0
x[1,6,15] 0
x[1,6,16] 0
x[1,6,17] 0
x[1,6,18] 0
x[1,6,19] 0
x[1,6,20] 0
x[2,1,1] 0
x[2,1,2] 0
x[2,1,3] 0
x[2,1,4] 0
x[2,1,5] 0
x[2,1,6] 0
x[2,1,7] 0
x[2,1,8] 0
x[2,1,9] 0
x[2,1,10] 0
x[2,1,11] 0
x[2,1,12] 0
x[2,1,13] 0
x[2,1,14] 0
x[2,1,15] 0
x[2,1,16] 0
x[2,1,17] 0
x[2,1,18] 0
x[2,1,19] 0
x[2,1,20] 0
x[2,2,1] 0
x[2,2,2] 0
x[2,2,3] 0
x[2,2,4] 0
x[2,2,5] 0
x[2,2,6] 0
x[2,2,7] 0
x[2,2,8] 0
x[2,2,9] 0
x[2,2,10] 0
x[2,2,11] 0
x[2,2,12] 0
x[2,2,13] 0
x[2,2,14] 0
x[2,2,15] 0
x[2,2,16] 0
x[2,2,17] 0
x[2,2,18] 0
x[2,2,19] 0
x[2,2,20] 0
x[2,3,1] 0
x[2,3,2] 0
x[2,3,3] 0
x[2,3,4] 0
x[2,3,5] 0
x[2,3,6] 0
x[2,3,7] 0
x[2,3,8] 0
x[2,3,9] 0
x[2,3,10] 0
x[2,3,11] 0
x[2,3,12] 0
x[2,3,13] 0
x[2,3,14] 0
x[2,3,15] 0
x[2,3,16] 0
x[2,3,17] 0
x[2,3,18] 0
x[2,3,19] 0
x[2,3,20] 0
x[2,4,1] 0
x[2,4,2] 0
x[2,4,3] 0
x[2,4,4] 0
x[2,4,5] 0
x[2,4,6] 0
x[2,4,7] 0
x[2,4,8] 0
x[2,4,9] 0
x[2,4,10] 0
x[2,4,11] 0
x[2,4,12] 0
x[2,4,13] 0
x[2,4,14] 0
x[2,4,15] 0
x[2,4,16] 0
x[2,4,17] 0
x[2,4,18] 0
x[2,4,19] 0
x[2,4,20] 0
x[2,5,1] 1
x[2,5,2] 1
x[2,5,3] 1
x[2,5,4] 1
x[2,5,5] 1
x[2,5,6] 1
x[2,5,7] 1
x[2,5,8] 1
x[2,5,9] 1
x[2,5,10] 1
x[2,5,11] 1
x[2,5,12] 1
x[2,5,13] 1
x[2,5,14] 1
x[2,5,15] 1
x[2,5,16] 1
x[2,5,17] 1
x[2,5,18] 1
x[2,5,19] 1
x[2,5,20] 1
x[2,6,1] 0
x[2,6,2] 0
x[2,6,3] 0
x[2,6,4] 0
x[2,6,5] 0
x[2,6,6] 0
x[2,6,7] 0
x[2,6,8] 0
x[2,6,9] 0
x[2,6,10] 0
x[2,6,11] 0
x[2,6,12] 0
x[2,6,13] 0
x[2,6,14] 0
x[2,6,15] 0
x[2,6,16] 0
x[2,6,17] 0
x[2,6,18] 0
x[2,6,19] 0
x[2,6,20] 0
x[3,1,1] 1
x[3,1,2] 1
x[3,1,3] 1
x[3,1,4] 1
x[3,1,5] 1
x[3,1,6] 1
x[3,1,7] 1
x[3,1,8] 1
x[3,1,9] 1
x[3,1,10] 1
x[3,1,11] 1
x[3,1,12] 1
x[3,1,13] 1
x[3,1,14] 1
x[3,1,15] 1
x[3,1,16] 1
x[3,1,17] 1
x[3,1,18] 1
x[3,1,19] 1
x[3,1,20] 1
x[3,2,1] 0
x[3,2,2] 0
x[3,2,3] 0
x[3,2,4] 0
x[3,2,5] 0
x[3,2,6] 0
x[3,2,7] 0
x[3,2,8] 0
x[3,2,9] 0
x[3,2,10] 0
x[3,2,11] 0
x[3,2,12] 0
x[3,2,13] 0
x[3,2,14] 0
x[3,2,15] 0
x[3,2,16] 0
x[3,2,17] 0
x[3,2,18] 0
x[3,2,19] 0
x[3,2,20] 0
x[3,3,1] 0
x[3,3,2] 0
x[3,3,3] 0
x[3,3,4] 0
x[3,3,5] 0
x[3,3,6] 0
x[3,3,7] 0
x[3,3,8] 0
x[3,3,9] 0
x[3,3,10] 0
x[3,3,11] 0
x[3,3,12] 0
x[3,3,13] 0
x[3,3,14] 0
x[3,3,15] 0
x[3,3,16] 0
x[3,3,17] 0
x[3,3,18] 0
x[3,3,19] 0
x[3,3,20] 0
x[3,4,1] 0
x[3,4,2] 0
x[3,4,3] 0
x[3,4,4] 0
x[3,4,5] 0
x[3,4,6] 0
x[3,4,7] 0
x[3,4,8] 0
x[3,4,9] 0
x[3,4,10] 0
x[3,4,11] 0
x[3,4,12] 0
x[3,4,13] 0
x[3,4,14] 0
x[3,4,15] 0
x[3,4,16] 0
x[3,4,17] 0
x[3,4,18] 0
x[3,4,19] 0
x[3,4,20] 0
x[3,5,1] 0
x[3,5,2] 0
x[3,5,3] 0
x[3,5,4] 0
x[3,5,5] 0
x[3,5,6] 0
x[3,5,7] 0
x[3,5,8] 0
x[3,5,9] 0
x[3,5,10] 0
x[3,5,11] 0
x[3,5,12] 0
x[3,5,13] 0
x[3,5,14] 0
x[3,5,15] 0
x[3,5,16] 0
x[3,5,17] 0
x[3,5,18] 0
x[3,5,19] 0
x[3,5,20] 0
x[3,6,1] 0
x[3,6,2] 0
x[3,6,3] 0
x[3,6,4] 0
x[3,6,5] 0
x[3,6,6] 0
x[3,6,7] 0
x[3,6,8] 0
x[3,6,9] 0
x[3,6,10] 0
x[3,6,11] 0
x[3,6,12] 0
x[3,6,13] 0
x[3,6,14] 0
x[3,6,15] 0
x[3,6,16] 0
x[3,6,17] 0
x[3,6,18] 0
x[3,6,19] 0
x[3,6,20] 0
x[4,1,1] 1
x[4,1,2] 1
x[4,1,3] 1
x[4,1,4] 1
x[4,1,5] 1
x[4,1,6] 1
x[4,1,7] 1
x[4,1,8] 1
x[4,1,9] 1
x[4,1,10] 1
x[4,1,11] 1
x[4,1,12] 1
x[4,1,13] 1
x[4,1,14] 1
x[4,1,15] 1
x[4,1,16] 1
x[4,1,17] 1
x[4,1,18] 1
x[4,1,19] 1
x[4,1,20] 1
x[4,2,1] 0
x[4,2,2] 0
x[4,2,3] 0
x[4,2,4] 0
x[4,2,5] 0
x[4,2,6] 0
x[4,2,7] 0
x[4,2,8] 0
x[4,2,9] 0
x[4,2,10] 0
x[4,2,11] 0
x[4,2,12] 0
x[4,2,13] 0
x[4,2,14] 0
x[4,2,15] 0
x[4,2,16] 0
x[4,2,17] 0
x[4,2,18] 0
x[4,2,19] 0
x[4,2,20] 0
x[4,3,1] 0
x[4,3,2] 0
x[4,3,3] 0
x[4,3,4] 0
x[4,3,5] 0
x[4,3,6] 0
x[4,3,7] 0
x[4,3,8] 0
x[4,3,9] 0
x[4,3,10] 0
x[4,3,11] 0
x[4,3,12] 0
x[4,3,13] 0
x[4,3,14] 0
x[4,3,15] 0
x[4,3,16] 0
x[4,3,17] 0
x[4,3,18] 0
x[4,3,19] 0
x[4,3,20] 0
x[4,4,1] 0
x[4,4,2] 0
x[4,4,3] 0
x[4,4,4] 0
x[4,4,5] 0
x[4,4,6] 0
x[4,4,7] 0
x[4,4,8] 0
x[4,4,9] 0
x[4,4,10] 0
x[4,4,11] 0
x[4,4,12] 0
x[4,4,13] 0
x[4,4,14] 0
x[4,4,15] 0
x[4,4,16] 0
x[4,4,17] 0
x[4,4,18] 0
x[4,4,19] 0
x[4,4,20] 0
x[4,5,1] 0
x[4,5,2] 0
x[4,5,3] 0
x[4,5,4] 0
x[4,5,5] 0
x[4,5,6] 0
x[4,5,7] 0
x[4,5,8] 0
x[4,5,9] 0
x[4,5,10] 0
x[4,5,11] 0
x[4,5,12] 0
x[4,5,13] 0
x[4,5,14] 0
x[4,5,15] 0
x[4,5,16] 0
x[4,5,17] 0
x[4,5,18] 0
x[4,5,19] 0
x[4,5,20] 0
x[4,6,1] 0
x[4,6,2] 0
x[4,6,3] 0
x[4,6,4] 0
x[4,6,5] 0
x[4,6,6] 0
x[4,6,7] 0
x[4,6,8] 0
x[4,6,9] 0
x[4,6,10] 0
x[4,6,11] 0
x[4,6,12] 0
x[4,6,13] 0
x[4,6,14] 0
x[4,6,15] 0
x[4,6,16] 0
x[4,6,17] 0
x[4,6,18] 0
x[4,6,19] 0
x[4,6,20] 0
x[5,1,1] 0.25
x[5,1,2] 0
x[5,1,3] 1.4285714285714290e-01
x[5,1,4] 3.3333333333333337e-01
x[5,1,5] 3.3333333333333337e-01
x[5,1,6] 1.4285714285714290e-01
x[5,1,7] 1.4285714285714290e-01
x[5,1,8] 0
x[5,1,9] 0
x[5,1,10] 1.4285714285714290e-01
x[5,1,11] 1.4285714285714290e-01
x[5,1,12] 0
x[5,1,13] 3.9999999999999991e-01
x[5,1,14] 0
x[5,1,15] 1.4285714285714290e-01
x[5,1,16] 3.3333333333333337e-01
x[5,1,17] 0
x[5,1,18] 3.9999999999999991e-01
x[5,1,19] 3.9999999999999991e-01
x[5,1,20] 0
x[5,2,1] 0
x[5,2,2] 0
x[5,2,3] 0
x[5,2,4] 0
x[5,2,5] 0
x[5,2,6] 0
x[5,2,7] 0
x[5,2,8] 0
x[5,2,9] 0
x[5,2,10] 0
x[5,2,11] 0
x[5,2,12] 0
x[5,2,13] 0
x[5,2,14] 0
x[5,2,15] 0
x[5,2,16] 0
x[5,2,17] 0
x[5,2,18] 0
x[5,2,19] 0
x[5,2,20] 0
x[5,3,1] 0
x[5,3,2] 0
x[5,3,3] 0
x[5,3,4] 0
x[5,3,5] 0
x[5,3,6] 0
x[5,3,7] 0
x[5,3,8] 0
x[5,3,9] 0
x[5,3,10] 0
x[5,3,11] 0
x[5,3,12] 0
x[5,3,13] 0
x[5,3,14] 0
x[5,3,15] 0
x[5,3,16] 0
x[5,3,17] 0
x[5,3,18] 0
x[5,3,19] 0
x[5,3,20] 0
x[5,4,1] 0
x[5,4,2] 0
x[5,4,3] 0
x[5,4,4] 0
x[5,4,5] 0
x[5,4,6] 0
x[5,4,7] 0
x[5,4,8] 0
x[5,4,9] 0
x[5,4,10] 0
x[5,4,11] 0
x[5,4,12] 0
x[5,4,13] 0
x[5,4,14] 0
x[5,4,15] 0
x[5,4,16] 0
x[5,4,17] 0
x[5,4,18] 0
x[5,4,19] 0
x[5,4,20] 0
x[5,5,1] 0
x[5,5,2] 0
x[5,5,3] 0
x[5,5,4] 0
x[5,5,5] 0
x[5,5,6] 0
x[5,5,7] 0
x[5,5,8] 0
x[5,5,9] 0
x[5,5,10] 0
x[5,5,11] 0
x[5,5,12] 0
x[5,5,13] 0
x[5,5,14] 0
x[5,5,15] 0
x[5,5,16] 0
x[5,5,17] 0
x[5,5,18] 0
x[5,5,19] 0
x[5,5,20] 0
x[5,6,1] 0.75
x[5,6,2] 1
x[5,6,3] 8.5714285714285710e-01
x[5,6,4] 6.6666666666666663e-01
x[5,6,5] 6.6666666666666663e-01
x[5,6,6] 8.5714285714285710e-01
x[5,6,7] 8.5714285714285710e-01
x[5,6,8] 1
x[5,6,9] 1
x[5,6,10] 8.5714285714285710e-01
x[5,6,11] 8.5714285714285710e-01
x[5,6,12] 1
x[5,6,13] 0.6
x[5,6,14] 1
x[5,6,15] 8.5714285714285710e-01
x[5,6,16] 6.6666666666666663e-01
x[5,6,17] 1
x[5,6,18] 0.6
x[5,6,19] 0.6
x[5,6,20] 1
